N = 126;
M = 286;
Edge_Start = [1, 2, 3, 3, 4, 5, 6, 7, 7, 8, 9, 9, 10, 11, 13, 14, 15, 16, 17, 19, 19, 20, 21, 22, 23, 23, 24, 25, 25, 26, 27, 27, 28, 29, 29, 30, 31, 32, 32, 33, 34, 34, 36, 38, 38, 39, 40, 40, 41, 42, 43, 44, 44, 45, 46, 46, 48, 49, 49, 50, 51, 51, 52, 53, 54, 55, 55, 57, 57, 58, 59, 59, 61, 61, 62, 63, 64, 64, 65, 66, 66, 68, 68, 69, 70, 71, 72, 72, 73, 74, 74, 76, 77, 80, 81, 82, 83, 83, 84, 85, 85, 86, 87, 87, 88, 91, 92, 93, 93, 94, 95, 96, 97, 98, 98, 100, 100, 101, 102, 102, 104, 105, 106, 106, 107, 108, 108, 109, 110, 110, 112, 113, 114, 115, 116, 118, 119, 120, 121, 122, 123, 124, 125, 16, 3, 4, 18, 5, 20, 7, 8, 22, 9, 10, 24, 11, 12, 28, 15, 30, 17, 33, 20, 35, 21, 37, 23, 24, 39, 25, 26, 41, 27, 28, 43, 29, 30, 45, 31, 47, 33, 48, 34, 35, 50, 37, 39, 54, 40, 41, 56, 42, 43, 44, 45, 60, 46, 47, 62, 49, 50, 65, 51, 52, 67, 53, 69, 55, 56, 71, 58, 73, 59, 60, 75, 62, 77, 63, 79, 65, 80, 66, 67, 82, 69, 84, 70, 71, 72, 73, 88, 74, 75, 90, 77, 78, 81, 82, 83, 84, 99, 85, 86, 101, 87, 88, 103, 89, 92, 93, 94, 109, 95, 111, 97, 98, 99, 114, 101, 116, 102, 103, 118, 105, 106, 107, 122, 108, 109, 124, 110, 111, 126, 113, 114, 115, 116, 117, 119, 120, 121, 122, 123, 124, 125, 126];
Edge_End = [16, 3, 4, 18, 5, 20, 7, 8, 22, 9, 10, 24, 11, 12, 28, 15, 30, 17, 33, 20, 35, 21, 37, 23, 24, 39, 25, 26, 41, 27, 28, 43, 29, 30, 45, 31, 47, 33, 48, 34, 35, 50, 37, 39, 54, 40, 41, 56, 42, 43, 44, 45, 60, 46, 47, 62, 49, 50, 65, 51, 52, 67, 53, 69, 55, 56, 71, 58, 73, 59, 60, 75, 62, 77, 63, 79, 65, 80, 66, 67, 82, 69, 84, 70, 71, 72, 73, 88, 74, 75, 90, 77, 78, 81, 82, 83, 84, 99, 85, 86, 101, 87, 88, 103, 89, 92, 93, 94, 109, 95, 111, 97, 98, 99, 114, 101, 116, 102, 103, 118, 105, 106, 107, 122, 108, 109, 124, 110, 111, 126, 113, 114, 115, 116, 117, 119, 120, 121, 122, 123, 124, 125, 126, 1, 2, 3, 3, 4, 5, 6, 7, 7, 8, 9, 9, 10, 11, 13, 14, 15, 16, 17, 19, 19, 20, 21, 22, 23, 23, 24, 25, 25, 26, 27, 27, 28, 29, 29, 30, 31, 32, 32, 33, 34, 34, 36, 38, 38, 39, 40, 40, 41, 42, 43, 44, 44, 45, 46, 46, 48, 49, 49, 50, 51, 51, 52, 53, 54, 55, 55, 57, 57, 58, 59, 59, 61, 61, 62, 63, 64, 64, 65, 66, 66, 68, 68, 69, 70, 71, 72, 72, 73, 74, 74, 76, 77, 80, 81, 82, 83, 83, 84, 85, 85, 86, 87, 87, 88, 91, 92, 93, 93, 94, 95, 96, 97, 98, 98, 100, 100, 101, 102, 102, 104, 105, 106, 106, 107, 108, 108, 109, 110, 110, 112, 113, 114, 115, 116, 118, 119, 120, 121, 122, 123, 124, 125];
L = [5, 16, 7, 5, 4, 16, 7, 11, 14, 1, 16, 1, 13, 5, 1, 3, 1, 12, 18, 4, 6, 6, 4, 11, 16, 4, 10, 7, 4, 1, 6, 9, 8, 5, 5, 15, 9, 6, 14, 2, 2, 11, 1, 12, 12, 3, 6, 2, 3, 3, 4, 15, 15, 8, 7, 8, 7, 9, 6, 15, 1, 1, 2, 4, 2, 1, 3, 12, 14, 9, 5, 19, 13, 6, 10, 10, 14, 15, 8, 10, 1, 1, 14, 6, 16, 17, 9, 19, 1, 15, 2, 8, 16, 8, 9, 3, 3, 3, 7, 12, 18, 8, 4, 15, 9, 10, 2, 5, 19, 8, 11, 8, 1, 9, 18, 11, 2, 14, 8, 9, 6, 18, 17, 6, 10, 16, 15, 13, 17, 3, 11, 15, 9, 3, 9, 14, 12, 9, 16, 12, 15, 6, 1, 5, 16, 7, 5, 4, 16, 7, 11, 14, 1, 16, 1, 13, 5, 1, 3, 1, 12, 18, 4, 6, 6, 4, 11, 16, 4, 10, 7, 4, 1, 6, 9, 8, 5, 5, 15, 9, 6, 14, 2, 2, 11, 1, 12, 12, 3, 6, 2, 3, 3, 4, 15, 15, 8, 7, 8, 7, 9, 6, 15, 1, 1, 2, 4, 2, 1, 3, 12, 14, 9, 5, 19, 13, 6, 10, 10, 14, 15, 8, 10, 1, 1, 14, 6, 16, 17, 9, 19, 1, 15, 2, 8, 16, 8, 9, 3, 3, 3, 7, 12, 18, 8, 4, 15, 9, 10, 2, 5, 19, 8, 11, 8, 1, 9, 18, 11, 2, 14, 8, 9, 6, 18, 17, 6, 10, 16, 15, 13, 17, 3, 11, 15, 9, 3, 9, 14, 12, 9, 16, 12, 15, 6, 1];
T = [4, 12, 7, 7, 7, 24, 7, 1, 20, 3, 18, 1, 24, 8, 1, 11, 4, 22, 24, 4, 9, 6, 1, 9, 16, 3, 7, 5, 6, 3, 15, 13, 12, 5, 11, 19, 7, 7, 15, 5, 12, 7, 4, 13, 19, 3, 8, 11, 1, 12, 6, 15, 10, 10, 9, 1, 6, 12, 10, 20, 3, 1, 3, 6, 13, 5, 7, 13, 15, 2, 6, 14, 14, 8, 9, 9, 9, 14, 12, 1, 1, 1, 9, 2, 11, 17, 7, 23, 2, 14, 8, 5, 17, 10, 8, 1, 5, 1, 7, 2, 21, 8, 1, 11, 15, 1, 4, 4, 26, 5, 16, 8, 1, 20, 20, 20, 1, 3, 16, 5, 4, 23, 13, 6, 3, 15, 14, 15, 8, 4, 14, 19, 15, 3, 12, 17, 20, 6, 20, 4, 18, 9, 1, 4, 12, 7, 7, 7, 24, 7, 1, 20, 3, 18, 1, 24, 8, 1, 11, 4, 22, 24, 4, 9, 6, 1, 9, 16, 3, 7, 5, 6, 3, 15, 13, 12, 5, 11, 19, 7, 7, 15, 5, 12, 7, 4, 13, 19, 3, 8, 11, 1, 12, 6, 15, 10, 10, 9, 1, 6, 12, 10, 20, 3, 1, 3, 6, 13, 5, 7, 13, 15, 2, 6, 14, 14, 8, 9, 9, 9, 14, 12, 1, 1, 1, 9, 2, 11, 17, 7, 23, 2, 14, 8, 5, 17, 10, 8, 1, 5, 1, 7, 2, 21, 8, 1, 11, 15, 1, 4, 4, 26, 5, 16, 8, 1, 20, 20, 20, 1, 3, 16, 5, 4, 23, 13, 6, 3, 15, 14, 15, 8, 4, 14, 19, 15, 3, 12, 17, 20, 6, 20, 4, 18, 9, 1];
Lower_Bound = [0, 130, 118, 111, 104, 163, 156, 155, 152, 170, 194, 202, 168, 199, 188, 4, 26, 125, 76, 80, 86, 145, 136, 151, 144, 149, 152, 167, 179, 184, 198, 57, 50, 55, 67, 91, 87, 146, 133, 130, 138, 139, 151, 157, 172, 182, 191, 72, 74, 62, 82, 85, 88, 127, 114, 119, 146, 159, 161, 167, 197, 183, 192, 93, 84, 84, 83, 95, 94, 96, 107, 124, 131, 133, 147, 210, 205, 222, 201, 103, 93, 85, 86, 91, 98, 100, 108, 109, 124, 141, 258, 257, 253, 255, 250, 116, 108, 107, 87, 139, 119, 122, 119, 223, 219, 196, 209, 212, 227, 226, 234, 160, 146, 127, 142, 140, 152, 127, 144, 164, 170, 190, 194, 212, 221, 222];
Upper_Bound = [0, 130, 118, 111, 104, 163, 156, 155, 152, 170, 194, 202, 168, 199, 188, 4, 26, 125, 76, 80, 86, 145, 136, 151, 144, 149, 152, 167, 179, 184, 198, 57, 50, 55, 67, 91, 87, 146, 133, 130, 138, 139, 151, 157, 172, 182, 191, 72, 74, 62, 82, 85, 88, 127, 114, 119, 146, 159, 161, 167, 197, 183, 192, 93, 84, 84, 83, 95, 94, 96, 107, 124, 131, 133, 147, 210, 205, 222, 201, 103, 93, 85, 86, 91, 98, 100, 108, 109, 124, 141, 258, 257, 253, 255, 250, 116, 108, 107, 87, 139, 119, 122, 119, 223, 219, 196, 209, 212, 227, 226, 234, 160, 146, 127, 142, 140, 152, 127, 144, 164, 170, 190, 194, 212, 221, 222];
Start = 1;
End = 126;
Time = 222;
